c WARNING: for repeatability, setting FPU to use double precision
d VARIABLES            26816        
d CONSTRAINTS          90792        
c ============================[ Problem Statistics ]=============================
c |                                                                             |
c |  Number of variables:         26816                                         |
c |  Number of clauses:           90792                                         |
c |  Parse time:                   0.01 s                                       |
c |                                                                             |
c ============================[ Search Statistics ]==============================
c | Conflicts |          ORIGINAL         |          LEARNT          | Progress |
c |           |    Vars  Clauses Literals |    Limit  Clauses Lit/Cl |          |
c ===============================================================================
c |       100 |   17231    66162   166521 |    24259      100      5 | 35.744 % |
c |       250 |   17231    66162   166521 |    26685      250     16 | 35.744 % |
c |       475 |   17231    66162   166521 |    29353      475     34 | 35.744 % |
c |       812 |   17230    66158   166511 |    32289      811     31 | 35.747 % |
c |      1318 |   17230    66158   166511 |    35518     1317     34 | 35.747 % |
c |      2077 |   17230    66158   166511 |    39070     2076     35 | 35.747 % |
c |      3216 |   17230    66158   166511 |    42977     3215     40 | 35.747 % |
c |      4924 |   17230    66158   166511 |    47274     4923     46 | 35.747 % |
c |      7486 |   17230    66158   166511 |    52002     7485     63 | 35.747 % |
c |     11330 |   17230    66158   166511 |    57202    11329     70 | 35.747 % |
c |     17096 |   17230    66158   166511 |    62922    17095     84 | 35.747 % |
c |     25745 |   17230    66158   166511 |    69214    25744    100 | 35.747 % |
c |     38719 |   17230    66158   166511 |    76136    38718    109 | 35.747 % |
c |     58180 |   17229    66154   166501 |    83750    58178    118 | 35.751 % |
c |     87372 |   17228    66150   166491 |    92125    87369    126 | 35.755 % |
c |    131161 |   17228    66150   166491 |   101337    49153    109 | 35.755 % |
c |    196845 |   17227    66146   166481 |   111471    24849     83 | 35.759 % |
c |    295371 |   17227    66146   166481 |   122618    25995     78 | 35.759 % |
c |    443160 |   17227    66146   166481 |   134880    69150     91 | 35.759 % |
c |    664843 |   17227    66146   166481 |   148368    55888     90 | 35.759 % |
c |    997368 |   17227    66146   166481 |   163205   129990    136 | 35.759 % |
c |   1496156 |   17227    66146   166481 |   179525    31918     64 | 35.759 % |
c |   2244338 |   17227    66146   166481 |   197478   129352    138 | 35.759 % |
c |   3366612 |   17227    66146   166481 |   217226   171046    126 | 35.759 % |
c |   5050023 |   17227    66146   166481 |   238948    27798     47 | 35.759 % |
c ===============================================================================
c restarts              : 8957
c conflicts             : 5666977        (3166 /sec)
c decisions             : 11408463       (0.00 % random) (6374 /sec)
c propagations          : 5256640173     (2936953 /sec)
c conflict literals     : 706049042      (31.75 % deleted)
d RESTARTS             8957
d FAILURES             5666977      
d NODES                11408463     
d BACKTRACKS           11408463     
d PROPAGATIONS         5256640173   
d NOGOODSIZE           124.59 
d MEMORY               257.00 
d TIME                 1789.83 

s UNKNOWN
